language Essence 1.3
$ generated by bacp-gen.pl with seed 1058338582
$ edge probability 0.0595
$ course loads in range 2..8
letting n_courses be 158
letting n_periods be 29
letting load_per_period_lb be 6
letting load_per_period_ub be 49
letting courses_per_period_lb be 5
letting courses_per_period_ub be 10
letting course_load be function(
1 --> 6,
2 --> 5,
3 --> 4,
4 --> 2,
5 --> 3,
6 --> 7,
7 --> 2,
8 --> 6,
9 --> 2,
10 --> 4,
11 --> 3,
12 --> 3,
13 --> 7,
14 --> 3,
15 --> 2,
16 --> 5,
17 --> 8,
18 --> 5,
19 --> 7,
20 --> 3,
21 --> 3,
22 --> 4,
23 --> 3,
24 --> 7,
25 --> 6,
26 --> 3,
27 --> 7,
28 --> 5,
29 --> 2,
30 --> 8,
31 --> 5,
32 --> 5,
33 --> 2,
34 --> 5,
35 --> 7,
36 --> 3,
37 --> 4,
38 --> 3,
39 --> 5,
40 --> 8,
41 --> 7,
42 --> 7,
43 --> 3,
44 --> 2,
45 --> 6,
46 --> 4,
47 --> 3,
48 --> 5,
49 --> 2,
50 --> 3,
51 --> 3,
52 --> 8,
53 --> 7,
54 --> 4,
55 --> 3,
56 --> 4,
57 --> 4,
58 --> 5,
59 --> 2,
60 --> 6,
61 --> 7,
62 --> 4,
63 --> 3,
64 --> 6,
65 --> 6,
66 --> 2,
67 --> 6,
68 --> 5,
69 --> 8,
70 --> 6,
71 --> 5,
72 --> 3,
73 --> 5,
74 --> 2,
75 --> 7,
76 --> 8,
77 --> 7,
78 --> 3,
79 --> 8,
80 --> 4,
81 --> 8,
82 --> 7,
83 --> 8,
84 --> 2,
85 --> 6,
86 --> 5,
87 --> 6,
88 --> 5,
89 --> 7,
90 --> 5,
91 --> 4,
92 --> 8,
93 --> 3,
94 --> 5,
95 --> 3,
96 --> 3,
97 --> 5,
98 --> 7,
99 --> 3,
100 --> 3,
101 --> 4,
102 --> 4,
103 --> 5,
104 --> 5,
105 --> 2,
106 --> 5,
107 --> 7,
108 --> 3,
109 --> 3,
110 --> 3,
111 --> 2,
112 --> 6,
113 --> 8,
114 --> 5,
115 --> 5,
116 --> 6,
117 --> 7,
118 --> 3,
119 --> 2,
120 --> 2,
121 --> 3,
122 --> 4,
123 --> 8,
124 --> 2,
125 --> 7,
126 --> 7,
127 --> 5,
128 --> 3,
129 --> 2,
130 --> 6,
131 --> 8,
132 --> 2,
133 --> 3,
134 --> 2,
135 --> 4,
136 --> 3,
137 --> 3,
138 --> 6,
139 --> 2,
140 --> 5,
141 --> 4,
142 --> 3,
143 --> 5,
144 --> 3,
145 --> 4,
146 --> 4,
147 --> 5,
148 --> 7,
149 --> 6,
150 --> 6,
151 --> 7,
152 --> 5,
153 --> 4,
154 --> 4,
155 --> 7,
156 --> 3,
157 --> 5,
158 --> 3
)
letting prerequisite be relation (
(37,49),
(29,50),
(15,51),
(32,52),
(6,53),
(14,54),
(20,55),
(35,56),
(12,57),
(43,58),
(17,59),
(4,60),
(34,61),
(36,62),
(43,63),
(35,64),
(36,65),
(21,66),
(7,67),
(17,68),
(36,69),
(34,70),
(11,71),
(7,72),
(10,73),
(30,74),
(28,75),
(32,76),
(31,77),
(31,78),
(17,79),
(21,80),
(29,81),
(27,82),
(26,83),
(16,84),
(35,85),
(31,86),
(17,87),
(23,88),
(19,89),
(39,90),
(6,91),
(31,92),
(26,93),
(15,94),
(27,95),
(10,96),
(31,97),
(16,98),
(48,99),
(8,100),
(31,101),
(31,102),
(41,103),
(11,104),
(42,105),
(45,106),
(13,107),
(19,108),
(38,109),
(34,110),
(17,111),
(5,112),
(8,113),
(21,114),
(19,115),
(44,116),
(22,117),
(93,118),
(53,119),
(55,120),
(112,121),
(116,122),
(79,123),
(66,124),
(50,125),
(73,126),
(74,127),
(49,128),
(112,129),
(59,130),
(73,131),
(77,132),
(61,133),
(59,134),
(90,135),
(71,136),
(108,137),
(90,138),
(91,139),
(95,140),
(56,141),
(112,142),
(74,143),
(104,144),
(79,145),
(71,146),
(88,147),
(89,148),
(75,149),
(110,150),
(96,151),
(84,152),
(56,153),
(104,154),
(77,155),
(87,156),
(91,157),
(77,158),
(18,53),
(76,138),
(78,123),
(30,115),
(59,149),
(74,155),
(33,99),
(83,124),
(58,132),
(12,69),
(31,65),
(113,132),
(57,142),
(28,117),
(91,152),
(54,126),
(22,113),
(109,158),
(28,105),
(103,121),
(109,141),
(82,124),
(13,64),
(69,122),
(2,63),
(102,155),
(108,135),
(78,146),
(14,68),
(52,158),
(93,149),
(107,152),
(8,57),
(35,108),
(15,97),
(80,155),
(96,155),
(58,128),
(10,92),
(75,121),
(80,143),
(34,113),
(63,119),
(24,52),
(32,58),
(58,120),
(8,114),
(82,140),
(23,113),
(114,137),
(7,95),
(27,89),
(29,104),
(76,145),
(19,92),
(3,112),
(84,151),
(30,68),
(2,93),
(13,98),
(39,114),
(114,145),
(36,88),
(49,155),
(22,83),
(44,83),
(102,122),
(46,89),
(110,123),
(50,154),
(33,60),
(104,155),
(22,102),
(1,107),
(105,123),
(53,121),
(73,125),
(5,79),
(13,108),
(4,113),
(32,105),
(102,140),
(24,81),
(60,120),
(62,132),
(62,130),
(46,77),
(52,143),
(36,97),
(51,141),
(41,68),
(116,152),
(20,109),
(63,133),
(98,155),
(11,56),
(99,151),
(41,51),
(42,111),
(97,158),
(94,157),
(44,87),
(25,89),
(73,146),
(26,103),
(90,137),
(50,140),
(7,53),
(15,77),
(116,131),
(21,87),
(49,144),
(95,145),
(9,85),
(13,92),
(39,52),
(43,49),
(37,58),
(94,141),
(41,83),
(21,113),
(53,150),
(53,128),
(30,107),
(13,101),
(30,91),
(52,152),
(94,121),
(94,154),
(48,72),
(54,133),
(70,123),
(81,133),
(73,154),
(2,102),
(64,125),
(86,132),
(37,52),
(13,60),
(21,85),
(107,141),
(19,112),
(35,99),
(73,124),
(62,119),
(16,81),
(47,95),
(111,123),
(54,125),
(105,128),
(113,141),
(28,85),
(48,84),
(44,92),
(91,146),
(113,124),
(96,121),
(37,63),
(41,63),
(97,149),
(40,92),
(73,134),
(16,59),
(34,67),
(107,147),
(12,88),
(46,52),
(10,83),
(43,84),
(90,142),
(82,157),
(40,67),
(102,146),
(57,134),
(76,122),
(26,104),
(96,152),
(21,70),
(98,146),
(107,153),
(24,64),
(43,99),
(44,111),
(14,103),
(5,87),
(31,104),
(8,75),
(37,83),
(51,150),
(17,73),
(92,133),
(23,63),
(58,122),
(66,135),
(70,154),
(21,105),
(5,70),
(60,137),
(31,76),
(17,63),
(17,62),
(97,118),
(42,102),
(38,90),
(27,51),
(17,51),
(44,72),
(12,113),
(109,127),
(48,53),
(26,61),
(42,93),
(19,73),
(100,144),
(13,75),
(104,122),
(39,98),
(30,84),
(27,104),
(18,91),
(80,156),
(9,80),
(50,158),
(97,155),
(5,67),
(14,65),
(23,110),
(26,69),
(117,134),
(10,58),
(6,102),
(33,87),
(8,62),
(38,84),
(43,69),
(75,147),
(10,116),
(16,109),
(14,117),
(54,156),
(4,89),
(13,62),
(8,108),
(100,156),
(7,50),
(66,132),
(5,93),
(27,99),
(43,104),
(74,126),
(41,104),
(6,75),
(23,111),
(20,81),
(9,59)
)

